NAME : pr152
TYPE : OP
DIMENSION : 152
COST_LIMIT : 36841
ROUTE_NODES : 71
ROUTE_SCORE : 4245
ROUTE_COST : 36795
NODE_SEQUENCE_SECTION
1
35
49
50
76
74
77
93
94
95
116
115
96
91
79
71
72
53
52
69
54
45
44
55
56
68
67
66
65
57
43
82
88
101
102
103
112
111
104
87
105
106
86
60
61
62
63
64
59
58
42
23
22
11
6
12
25
26
13
27
28
38
29
30
31
15
32
33
37
34
16
-1
DEPOT_SECTION
1
-1
EOF
